100 8
753 506
696 621
410 764
388 422
255 599
432 656
328 800
509 336
343 545
776 519
282 590
377 880
241 742
275 691
579 794
752 837
382 199
371 203
366 335
292 653
159 392
746 699
869 787
446 874
606 228
395 713
671 676
752 734
268 630
352 250
854 693
884 691
656 266
781 510
424 525
540 247
441 725
868 798
816 613
866 876
786 806
236 864
581 314
485 415
586 894
732 537
568 274
229 195
756 669
702 738
878 410
801 736
282 473
454 799
416 130
742 724
231 167
910 709
373 335
484 542
893 711
742 639
358 624
416 433
375 618
492 703
236 568
791 479
354 418
874 834
436 367
279 183
823 767
250 99
514 440
266 478
797 371
379 307
691 295
359 539
287 594
400 773
102 315
683 613
671 246
268 777
302 634
889 915
208 297
796 509
430 584
341 267
361 489
678 825
724 666
525 748
137 293
855 413
379 180
656 259
